[[34, 67, 46, 7, 35, 8, 54, 19, 53, 14, 59, 11, 66, 65, 38, 10, 31, 58, 72, 39, 12, 40, 32, 9, 25, 55], [18, 50, 24, 49, 3, 44, 16, 51, 33, 73, 63, 23, 56, 41, 43, 42, 64, 22, 61, 28, 62, 74], [2, 30, 48, 47, 21, 69, 36, 71, 60, 70, 20, 37, 5, 29, 15, 57, 13, 27, 52, 45, 4, 75, 68, 6, 17, 76, 26]]